1
18 9 15 0 0 0 e
---
2
18 9 15 0 0 0 e
2 10 6 18 0 0 m
---
5
19 7 11 0 0 0 e
20 6 3 0 0 11 m
19 3 9 0 7 0 l
7 3 6 0 7 9 j
10 2 6 7 7 9 b
---
6
17 7 12 0 0 0 e
19 9 3 0 0 12 m
20 3 6 0 7 0 l
7 3 6 0 7 6 j
10 2 6 7 7 6 b
3 5 8 17 0 0 n
---
5
11 10 12 0 0 0 e
6 7 3 0 0 12 m
5 8 3 6 0 12 l
9 8 14 11 0 0 j
6 2 10 11 8 0 b
---
1
18 9 15 0 0 0 e
---
2
18 9 15 0 0 0 e
2 10 6 18 0 0 m
---
5
19 7 11 0 0 0 e
20 6 3 0 0 11 m
19 3 9 0 7 0 l
7 3 6 0 7 9 j
10 2 6 7 7 9 b
---
6
17 7 12 0 0 0 e
19 9 3 0 0 12 m
20 3 6 0 7 0 l
7 3 6 0 7 6 j
10 2 6 7 7 6 b
3 5 8 17 0 0 n
---
5
11 10 12 0 0 0 e
6 7 3 0 0 12 m
5 8 3 6 0 12 l
9 8 14 11 0 0 j
6 2 10 11 8 0 b
---
1
16 14 12 0 0 0 e
---
1
61 48 23 0 0 0 1
---
2
61 48 23 0 0 0 1
61 48 23 0 0 23 1
---
3
61 48 23 0 0 0 1
61 48 23 0 0 23 1
61 48 23 0 0 46 1
---
4
61 48 23 0 0 0 1
61 48 23 0 0 23 1
61 48 23 0 0 46 1
61 48 23 0 0 69 1
---
5
61 48 23 0 0 0 1
61 48 23 0 0 23 1
61 48 23 0 0 46 1
61 48 23 0 0 69 1
11 32 15 61 0 69 3
---
6
61 48 23 0 0 0 1
61 48 23 0 0 23 1
61 48 23 0 0 46 1
61 48 23 0 0 69 1
11 32 15 61 0 69 3
11 32 15 61 0 84 3
---
7
61 48 23 0 0 0 1
61 48 23 0 0 23 1
61 48 23 0 0 46 1
61 48 23 0 0 69 1
11 32 15 61 0 69 3
11 32 15 61 0 84 3
11 32 15 61 32 84 3
---
8
61 48 23 0 0 0 1
61 48 23 0 0 23 1
61 48 23 0 0 46 1
61 48 23 0 0 69 1
11 32 15 61 0 69 3
11 32 15 61 0 84 3
11 32 15 61 32 84 3
11 32 15 61 32 69 3
---
9
61 48 23 0 0 0 1
61 48 23 0 0 23 1
61 48 23 0 0 46 1
61 48 23 0 0 69 1
11 32 15 61 0 69 3
11 32 15 61 0 84 3
11 32 15 61 32 84 3
11 32 15 61 32 69 3
38 20 23 0 48 69 6
---
10
61 48 23 0 0 0 1
61 48 23 0 0 23 1
61 48 23 0 0 46 1
61 48 23 0 0 69 1
11 32 15 61 0 69 3
11 32 15 61 0 84 3
11 32 15 61 32 84 3
11 32 15 61 32 69 3
38 20 23 0 48 69 6
11 32 15 61 0 46 3
---
11
61 48 23 0 0 0 1
61 48 23 0 0 23 1
61 48 23 0 0 46 1
61 48 23 0 0 69 1
11 32 15 61 0 69 3
11 32 15 61 0 84 3
11 32 15 61 32 84 3
11 32 15 61 32 69 3
38 20 23 0 48 69 6
11 32 15 61 0 46 3
11 32 15 61 32 46 3
---
12
61 48 23 0 0 0 1
61 48 23 0 0 23 1
61 48 23 0 0 46 1
61 48 23 0 0 69 1
11 32 15 61 0 69 3
11 32 15 61 0 84 3
11 32 15 61 32 84 3
11 32 15 61 32 69 3
38 20 23 0 48 69 6
11 32 15 61 0 46 3
11 32 15 61 32 46 3
38 20 23 0 48 46 6
---
13
61 48 23 0 0 0 1
61 48 23 0 0 23 1
61 48 23 0 0 46 1
61 48 23 0 0 69 1
11 32 15 61 0 69 3
11 32 15 61 0 84 3
11 32 15 61 32 84 3
11 32 15 61 32 69 3
38 20 23 0 48 69 6
11 32 15 61 0 46 3
11 32 15 61 32 46 3
38 20 23 0 48 46 6
11 15 32 38 48 46 3
---
14
61 48 23 0 0 0 1
61 48 23 0 0 23 1
61 48 23 0 0 46 1
61 48 23 0 0 69 1
11 32 15 61 0 69 3
11 32 15 61 0 84 3
11 32 15 61 32 84 3
11 32 15 61 32 69 3
38 20 23 0 48 69 6
11 32 15 61 0 46 3
11 32 15 61 32 46 3
38 20 23 0 48 46 6
11 15 32 38 48 46 3
11 15 32 49 48 46 3
---
15
61 48 23 0 0 0 1
61 48 23 0 0 23 1
61 48 23 0 0 46 1
61 48 23 0 0 69 1
11 32 15 61 0 69 3
11 32 15 61 0 84 3
11 32 15 61 32 84 3
11 32 15 61 32 69 3
38 20 23 0 48 69 6
11 32 15 61 0 46 3
11 32 15 61 32 46 3
38 20 23 0 48 46 6
11 15 32 38 48 46 3
11 15 32 49 48 46 3
11 32 15 61 0 23 3
---
16
61 48 23 0 0 0 1
61 48 23 0 0 23 1
61 48 23 0 0 46 1
61 48 23 0 0 69 1
11 32 15 61 0 69 3
11 32 15 61 0 84 3
11 32 15 61 32 84 3
11 32 15 61 32 69 3
38 20 23 0 48 69 6
11 32 15 61 0 46 3
11 32 15 61 32 46 3
38 20 23 0 48 46 6
11 15 32 38 48 46 3
11 15 32 49 48 46 3
11 32 15 61 0 23 3
11 32 15 61 32 23 3
---
17
61 48 23 0 0 0 1
61 48 23 0 0 23 1
61 48 23 0 0 46 1
61 48 23 0 0 69 1
11 32 15 61 0 69 3
11 32 15 61 0 84 3
11 32 15 61 32 84 3
11 32 15 61 32 69 3
38 20 23 0 48 69 6
11 32 15 61 0 46 3
11 32 15 61 32 46 3
38 20 23 0 48 46 6
11 15 32 38 48 46 3
11 15 32 49 48 46 3
11 32 15 61 0 23 3
11 32 15 61 32 23 3
32 11 15 0 48 23 3
---
18
61 48 23 0 0 0 1
61 48 23 0 0 23 1
61 48 23 0 0 46 1
61 48 23 0 0 69 1
11 32 15 61 0 69 3
11 32 15 61 0 84 3
11 32 15 61 32 84 3
11 32 15 61 32 69 3
38 20 23 0 48 69 6
11 32 15 61 0 46 3
11 32 15 61 32 46 3
38 20 23 0 48 46 6
11 15 32 38 48 46 3
11 15 32 49 48 46 3
11 32 15 61 0 23 3
11 32 15 61 32 23 3
32 11 15 0 48 23 3
32 11 15 0 59 23 3
---
19
61 48 23 0 0 0 1
61 48 23 0 0 23 1
61 48 23 0 0 46 1
61 48 23 0 0 69 1
11 32 15 61 0 69 3
11 32 15 61 0 84 3
11 32 15 61 32 84 3
11 32 15 61 32 69 3
38 20 23 0 48 69 6
11 32 15 61 0 46 3
11 32 15 61 32 46 3
38 20 23 0 48 46 6
11 15 32 38 48 46 3
11 15 32 49 48 46 3
11 32 15 61 0 23 3
11 32 15 61 32 23 3
32 11 15 0 48 23 3
32 11 15 0 59 23 3
32 11 15 0 48 0 3
---
20
61 48 23 0 0 0 1
61 48 23 0 0 23 1
61 48 23 0 0 46 1
61 48 23 0 0 69 1
11 32 15 61 0 69 3
11 32 15 61 0 84 3
11 32 15 61 32 84 3
11 32 15 61 32 69 3
38 20 23 0 48 69 6
11 32 15 61 0 46 3
11 32 15 61 32 46 3
38 20 23 0 48 46 6
11 15 32 38 48 46 3
11 15 32 49 48 46 3
11 32 15 61 0 23 3
11 32 15 61 32 23 3
32 11 15 0 48 23 3
32 11 15 0 59 23 3
32 11 15 0 48 0 3
32 11 15 32 48 0 3
---
21
61 48 23 0 0 0 1
61 48 23 0 0 23 1
61 48 23 0 0 46 1
61 48 23 0 0 69 1
11 32 15 61 0 69 3
11 32 15 61 0 84 3
11 32 15 61 32 84 3
11 32 15 61 32 69 3
38 20 23 0 48 69 6
11 32 15 61 0 46 3
11 32 15 61 32 46 3
38 20 23 0 48 46 6
11 15 32 38 48 46 3
11 15 32 49 48 46 3
11 32 15 61 0 23 3
11 32 15 61 32 23 3
32 11 15 0 48 23 3
32 11 15 0 59 23 3
32 11 15 0 48 0 3
32 11 15 32 48 0 3
32 11 15 32 59 0 3
---
22
61 48 23 0 0 0 1
61 48 23 0 0 23 1
61 48 23 0 0 46 1
61 48 23 0 0 69 1
11 32 15 61 0 69 3
11 32 15 61 0 84 3
11 32 15 61 32 84 3
11 32 15 61 32 69 3
38 20 23 0 48 69 6
11 32 15 61 0 46 3
11 32 15 61 32 46 3
38 20 23 0 48 46 6
11 15 32 38 48 46 3
11 15 32 49 48 46 3
11 32 15 61 0 23 3
11 32 15 61 32 23 3
32 11 15 0 48 23 3
32 11 15 0 59 23 3
32 11 15 0 48 0 3
32 11 15 32 48 0 3
32 11 15 32 59 0 3
32 11 15 0 59 0 3
---
23
61 48 23 0 0 0 1
61 48 23 0 0 23 1
61 48 23 0 0 46 1
61 48 23 0 0 69 1
11 32 15 61 0 69 3
11 32 15 61 0 84 3
11 32 15 61 32 84 3
11 32 15 61 32 69 3
38 20 23 0 48 69 6
11 32 15 61 0 46 3
11 32 15 61 32 46 3
38 20 23 0 48 46 6
11 15 32 38 48 46 3
11 15 32 49 48 46 3
11 32 15 61 0 23 3
11 32 15 61 32 23 3
32 11 15 0 48 23 3
32 11 15 0 59 23 3
32 11 15 0 48 0 3
32 11 15 32 48 0 3
32 11 15 32 59 0 3
32 11 15 0 59 0 3
11 32 15 61 0 0 3
---
24
61 48 23 0 0 0 1
61 48 23 0 0 23 1
61 48 23 0 0 46 1
61 48 23 0 0 69 1
11 32 15 61 0 69 3
11 32 15 61 0 84 3
11 32 15 61 32 84 3
11 32 15 61 32 69 3
38 20 23 0 48 69 6
11 32 15 61 0 46 3
11 32 15 61 32 46 3
38 20 23 0 48 46 6
11 15 32 38 48 46 3
11 15 32 49 48 46 3
11 32 15 61 0 23 3
11 32 15 61 32 23 3
32 11 15 0 48 23 3
32 11 15 0 59 23 3
32 11 15 0 48 0 3
32 11 15 32 48 0 3
32 11 15 32 59 0 3
32 11 15 0 59 0 3
15 32 11 61 0 0 3
15 32 11 61 0 11 3
---
25
61 48 23 0 0 0 1
61 48 23 0 0 23 1
61 48 23 0 0 46 1
61 48 23 0 0 69 1
11 32 15 61 0 69 3
11 32 15 61 0 84 3
11 32 15 61 32 84 3
11 32 15 61 32 69 3
38 20 23 0 48 69 6
11 32 15 61 0 46 3
11 32 15 61 32 46 3
38 20 23 0 48 46 6
11 15 32 38 48 46 3
11 15 32 49 48 46 3
11 32 15 61 0 23 3
11 32 15 61 32 23 3
32 11 15 0 48 23 3
32 11 15 0 59 23 3
32 11 15 0 48 0 3
32 11 15 32 48 0 3
15 11 32 32 59 0 3
32 11 15 47 59 0 3
32 11 15 0 59 0 3
15 32 11 61 0 0 3
15 32 11 61 0 11 3
---
